c uprop, v00.0, 
c reading from data/prog133.c.cnf
c done reading: 0.002845
p cnf 112 461
-60 -67 0
60 67 0
-69 -72 0
69 72 0
-63 -76 0
63 76 0
-80 -82 0
80 82 0
-60 84 0
60 -84 0
68 -69 0
-68 69 0
-68 69 -86 0
-68 -86 0
68 -69 86 0
68 86 0
-60 74 -76 0
-68 74 -76 0
-60 -68 74 0
60 -74 76 0
68 -74 76 0
60 68 -74 0
-74 76 -87 0
60 -74 -87 0
68 -74 -87 0
74 -76 87 0
-60 74 87 0
-68 74 87 0
-60 -68 -76 87 0
60 68 76 -87 0
58 -69 -82 0
58 -74 -82 0
58 -69 -74 0
-58 69 82 0
-58 74 82 0
-58 69 74 0
-57 -58 82 0
-57 -58 69 0
-57 -58 74 0
57 58 -82 0
57 58 -69 0
57 58 -74 0
57 -69 -74 -82 0
-57 69 74 82 0
-55 76 0
-55 58 0
55 -58 -76 0
-54 -58 -76 0
-54 58 76 0
54 58 -76 0
54 -58 76 0
-52 82 0
-52 55 0
52 -55 -82 0
-51 -55 -82 0
-51 55 82 0
51 55 -82 0
51 -55 82 0
77 -84 0
-77 84 0
50 -86 0
-50 86 0
65 -87 0
-65 87 0
-49 -65 87 0
-49 -65 0
49 65 -87 0
49 65 0
-57 -60 70 0
-57 -65 70 0
-60 -65 70 0
57 60 -70 0
57 65 -70 0
60 65 -70 0
-48 57 -70 0
-48 60 -70 0
-48 65 -70 0
48 -57 70 0
48 -60 70 0
48 -65 70 0
48 -57 -60 -65 0
-48 57 60 65 0
-54 61 -69 0
-54 61 -70 0
61 -69 -70 0
54 -61 69 0
54 -61 70 0
-61 69 70 0
-47 54 -61 0
-47 -61 69 0
-47 -61 70 0
47 -54 61 0
47 61 -69 0
47 61 -70 0
47 -54 -69 -70 0
-47 54 69 70 0
-51 -76 78 0
-51 -61 78 0
-61 -76 78 0
51 76 -78 0
51 61 -78 0
61 76 -78 0
-46 51 -78 0
-46 76 -78 0
-46 61 -78 0
46 -51 78 0
46 -76 78 0
46 -61 78 0
46 -51 -61 -76 0
-46 51 61 76 0
-52 -82 88 0
-52 -78 88 0
-78 -82 88 0
52 82 -88 0
52 78 -88 0
78 82 -88 0
52 -88 -89 0
82 -88 -89 0
78 -88 -89 0
-52 88 89 0
-82 88 89 0
-78 88 89 0
-52 -78 -82 89 0
52 78 82 -89 0
77 -90 0
-77 90 0
-50 91 0
50 -91 0
-49 92 0
49 -92 0
-48 93 0
48 -93 0
48 -93 -94 0
-93 -94 0
-48 93 94 0
93 94 0
-47 -60 95 0
-47 -93 95 0
-60 -93 95 0
47 60 -95 0
47 93 -95 0
60 93 -95 0
47 -95 -96 0
60 -95 -96 0
93 -95 -96 0
-47 95 96 0
-60 95 96 0
-93 95 96 0
-47 -60 -93 96 0
47 60 93 -96 0
-46 -69 97 0
-46 -95 97 0
-69 -95 97 0
46 69 -97 0
46 95 -97 0
69 95 -97 0
46 -97 -98 0
69 -97 -98 0
95 -97 -98 0
-46 97 98 0
-69 97 98 0
-95 97 98 0
-46 -69 -95 98 0
46 69 95 -98 0
-76 -89 99 0
-89 -97 99 0
-76 -97 99 0
76 89 -99 0
89 97 -99 0
76 97 -99 0
89 -99 -100 0
76 -99 -100 0
97 -99 -100 0
-89 99 100 0
-76 99 100 0
-97 99 100 0
-76 -89 -97 100 0
76 89 97 -100 0
-82 -88 101 0
-88 -99 101 0
-82 -99 101 0
82 88 -101 0
88 99 -101 0
82 99 -101 0
88 -101 -102 0
82 -101 -102 0
99 -101 -102 0
-88 101 102 0
-82 101 102 0
-99 101 102 0
-82 -88 -99 102 0
82 88 99 -102 0
91 -103 0
-91 103 0
-92 104 0
92 -104 0
-94 105 0
94 -105 0
73 -96 0
-73 96 0
-73 96 -106 0
-73 -106 0
73 -96 106 0
73 106 0
-60 64 -98 0
64 -73 -98 0
-60 64 -73 0
60 -64 98 0
-64 73 98 0
60 -64 73 0
-64 98 -107 0
60 -64 -107 0
-64 73 -107 0
64 -98 107 0
-60 64 107 0
64 -73 107 0
-60 -73 -98 107 0
60 73 98 -107 0
-69 81 -100 0
-64 81 -100 0
-64 -69 81 0
69 -81 100 0
64 -81 100 0
64 69 -81 0
-81 100 -108 0
69 -81 -108 0
64 -81 -108 0
81 -100 108 0
-69 81 108 0
-64 81 108 0
-64 -69 -100 108 0
64 69 100 -108 0
-76 -102 109 0
-81 -102 109 0
-76 -81 109 0
76 102 -109 0
81 102 -109 0
76 81 -109 0
102 -109 -110 0
76 -109 -110 0
81 -109 -110 0
-102 109 110 0
-76 109 110 0
-81 109 110 0
-76 -81 -102 110 0
76 81 102 -110 0
-82 -101 111 0
-101 -109 111 0
-82 -109 111 0
82 101 -111 0
101 109 -111 0
82 109 -111 0
101 -111 -112 0
82 -111 -112 0
109 -111 -112 0
-101 111 112 0
-82 111 112 0
-109 111 112 0
-82 -101 -109 112 0
82 101 109 -112 0
-56 -90 0
56 90 0
-53 -103 0
53 103 0
-45 -104 0
45 104 0
-44 -105 0
44 105 0
-43 -106 0
43 106 0
-42 -107 0
42 107 0
-41 -108 0
41 108 0
-59 -110 0
59 110 0
-75 -112 0
75 112 0
-40 -111 0
40 111 0
-38 -39 0
-37 -38 0
37 38 39 0
-36 37 39 0
-36 -37 -39 0
36 37 -39 0
36 -37 39 0
-34 38 0
-34 -35 0
34 35 -38 0
-32 35 -38 0
-32 -35 38 0
32 35 38 0
32 -35 -38 0
-30 34 0
-30 -33 0
30 33 -34 0
-28 33 -34 0
-28 -33 34 0
28 33 34 0
28 -33 -34 0
-26 30 0
-26 -31 0
26 -30 31 0
-24 -30 31 0
-24 30 -31 0
24 30 31 0
24 -30 -31 0
-23 26 0
-23 -29 0
23 -26 29 0
-22 -26 29 0
-22 26 -29 0
22 26 29 0
22 -26 -29 0
-21 23 0
-21 -27 0
21 -23 27 0
-20 -23 27 0
-20 23 -27 0
20 23 27 0
20 -23 -27 0
-19 21 0
-19 -25 0
19 -21 25 0
-18 -21 25 0
-18 21 -25 0
18 21 25 0
18 -21 -25 0
-17 -39 0
-17 -37 0
17 37 39 0
-16 37 39 0
-16 -37 -39 0
16 37 -39 0
16 -37 39 0
-15 17 0
-15 -35 0
15 -17 35 0
-14 -17 35 0
-14 17 -35 0
14 17 35 0
14 -17 -35 0
-13 15 0
-13 -33 0
13 -15 33 0
-12 -15 33 0
-12 15 -33 0
12 15 33 0
12 -15 -33 0
-11 13 0
-11 -31 0
11 -13 31 0
-10 -13 31 0
-10 13 -31 0
10 13 31 0
10 -13 -31 0
-9 11 0
-9 -29 0
9 -11 29 0
-8 -11 29 0
-8 11 -29 0
8 11 29 0
8 -11 -29 0
-7 9 0
-7 -27 0
7 -9 27 0
-6 -9 27 0
-6 9 -27 0
6 9 27 0
6 -9 -27 0
-5 7 0
-5 -25 0
5 -7 25 0
-4 -7 25 0
-4 7 -25 0
4 7 25 0
4 -7 -25 0
-3 90 0
-3 39 0
3 -39 -90 0
-39 -90 0
39 90 0
-37 66 -103 0
-3 66 -103 0
-3 -37 66 0
37 -66 103 0
3 -66 103 0
3 37 -66 0
-66 103 0
37 -66 0
3 -66 0
3 37 103 0
-35 71 -104 0
-66 71 -104 0
-35 -66 71 0
35 -71 104 0
66 -71 104 0
35 66 -71 0
71 -104 0
-35 71 0
-66 71 0
-35 -66 -104 0
-33 62 -105 0
62 -71 -105 0
-33 62 -71 0
33 -62 105 0
-62 71 105 0
33 -62 71 0
62 -105 0
-33 62 0
62 -71 0
-33 -71 -105 0
-31 79 -106 0
-62 79 -106 0
-31 -62 79 0
31 -79 106 0
62 -79 106 0
31 62 -79 0
79 -106 0
-31 79 0
-62 79 0
-31 -62 -106 0
2 -29 -107 0
2 -79 -107 0
2 -29 -79 0
-2 29 107 0
-2 79 107 0
-2 29 79 0
2 -107 0
2 -29 0
2 -79 0
-29 -79 -107 0
1 -27 -108 0
1 -2 -108 0
1 -2 -27 0
-1 27 108 0
-1 2 108 0
-1 2 27 0
1 -108 0
1 -27 0
1 -2 0
-2 -27 -108 0
-25 83 -110 0
-1 83 -110 0
-1 -25 83 0
25 -83 110 0
1 -83 110 0
1 25 -83 0
83 -110 0
-25 83 0
-1 83 0
-1 -25 -110 0
-85 112 0
83 -85 0
-83 85 -112 0
83 -112 0
-83 112 0
-85 -111 0
85 -111 0
-85 111 0
